
n_res = 8;
rcap = [109, 113, 115, 97, 806, 722, 758, 750];
rtype = [1, 1, 1, 1, 2, 2, 2, 2];
n_tasks = 50;
modes =  [{1, 2, 3}, {4, 5, 6}, {7, 8, 9}, {10, 11, 12}, {13, 14, 15}, {16, 17, 18}, {19, 20, 21}, {22, 23, 24}, {25, 26, 27}, {28, 29, 30}, {31, 32, 33}, {34, 35, 36}, {37, 38, 39}, {40, 41, 42}, {43, 44, 45}, {46, 47, 48}, {49, 50, 51}, {52, 53, 54}, {55, 56, 57}, {58, 59, 60}, {61, 62, 63}, {64, 65, 66}, {67, 68, 69}, {70, 71, 72}, {73, 74, 75}, {76, 77, 78}, {79, 80, 81}, {82, 83, 84}, {85, 86, 87}, {88, 89, 90}, {91, 92, 93}, {94, 95, 96}, {97, 98, 99}, {100, 101, 102}, {103, 104, 105}, {106, 107, 108}, {109, 110, 111}, {112, 113, 114}, {115, 116, 117}, {118, 119, 120}, {121, 122, 123}, {124, 125, 126}, {127, 128, 129}, {130, 131, 132}, {133, 134, 135}, {136, 137, 138}, {139, 140, 141}, {142, 143, 144}, {145, 146, 147}, {148, 149, 150}];
succ =  [{49, 47, 37, 36, 34, 32, 30, 29, 27, 24, 22, 20, 18}, {48, 46, 38, 37, 35, 34, 31, 30, 29, 28, 24, 21}, {50, 48, 46, 38, 37, 35, 34, 31, 30, 28, 27}, {49, 38, 37, 36, 35, 34, 33, 31, 27, 22}, {50, 49, 36, 35, 29, 13}, {50, 47, 46, 43, 36, 35, 32, 31, 28, 24}, {48, 47, 46, 45, 43, 42, 36, 33, 32, 28}, {50, 48, 47, 46, 43, 35, 34, 32, 28}, {47, 46, 45, 43, 36, 33, 32, 29, 28}, {48, 45, 40, 38, 37, 33, 23}, {50, 49, 47, 46, 45, 44, 43, 41, 40, 32}, {42, 30, 28, 21}, {48, 47, 46, 43, 34, 33, 32}, {50, 45, 43, 40, 34, 33, 32}, {47, 45, 39, 33, 29, 28}, {45, 44, 43, 40, 32, 24}, {49, 46, 41, 39, 36, 30}, {46, 44, 43, 41, 40, 39, 35}, {44, 42, 41, 40, 32}, {43, 41, 39, 28}, {47, 44, 40, 32}, {46, 43, 41, 39}, {49, 44, 43, 41}, {42, 39, 33}, {44, 40, 34}, {42, 41, 32}, {41, 40, 39}, {44, 40}, {42, 40}, {45, 43}, {44, 39}, {39}, {41}, {42}, {45}, {40}, {39}, {42}, {}, {}, {}, {}, {}, {}, {}, {}, {}, {}, {}, {}];
n_opt = 150;
dur = [19, 24, 27, 7, 11, 12, 10, 22, 24, 1, 17, 22, 1, 19, 25, 8, 23, 24, 1, 13, 27, 4, 20, 24, 21, 23, 29, 9, 10, 29, 9, 10, 17, 27, 28, 30, 16, 22, 25, 8, 26, 28, 1, 7, 29, 7, 13, 19, 11, 20, 23, 16, 19, 20, 4, 17, 23, 5, 11, 17, 4, 21, 28, 16, 24, 28, 20, 21, 23, 3, 8, 9, 5, 18, 27, 1, 7, 26, 5, 11, 27, 8, 12, 20, 12, 13, 14, 8, 15, 25, 18, 19, 24, 17, 22, 25, 13, 16, 17, 7, 8, 9, 7, 16, 25, 16, 18, 28, 1, 13, 20, 4, 16, 18, 13, 17, 21, 4, 6, 30, 7, 14, 30, 8, 16, 30, 4, 15, 17, 4, 5, 21, 8, 16, 21, 17, 24, 29, 9, 13, 22, 5, 17, 18, 7, 15, 20, 13, 22, 30];
rreq = [|11, 11, 11, 17, 13, 9, 28, 27, 27, 14, 11, 10, 18, 14, 11, 14, 9, 6, 17, 11, 4, 21, 16, 11, 22, 21, 17, 26, 25, 23, 22, 16, 14, 12, 8, 8, 10, 9, 8, 23, 22, 19, 22, 21, 18, 21, 18, 13, 17, 12, 9, 26, 19, 18, 11, 10, 7, 27, 27, 26, 25, 24, 24, 23, 20, 16, 10, 8, 4, 14, 9, 7, 10, 7, 6, 20, 20, 14, 28, 15, 8, 27, 25, 23, 26, 26, 26, 27, 16, 6, 11, 10, 7, 30, 30, 30, 26, 25, 18, 6, 6, 4, 26, 26, 25, 9, 5, 5, 18, 14, 8, 5, 4, 3, 22, 18, 10, 23, 21, 17, 25, 16, 10, 22, 19, 18, 19, 13, 10, 26, 21, 12, 16, 16, 16, 25, 23, 22, 24, 24, 23, 23, 14, 10, 20, 20, 18, 10, 9, 4
 |10, 10, 10, 17, 12, 6, 13, 11, 9, 11, 10, 10, 13, 13, 12, 12, 12, 11, 10, 8, 5, 17, 15, 14, 20, 9, 2, 28, 23, 16, 27, 13, 13, 18, 14, 11, 24, 22, 21, 25, 17, 12, 25, 24, 23, 17, 17, 17, 25, 23, 20, 5, 5, 4, 28, 25, 25, 19, 11, 6, 12, 6, 1, 21, 15, 13, 17, 16, 14, 9, 4, 2, 25, 24, 19, 28, 27, 27, 28, 17, 10, 18, 11, 8, 12, 12, 12, 20, 14, 14, 19, 19, 19, 27, 27, 22, 21, 15, 10, 18, 15, 10, 23, 14, 5, 19, 19, 16, 26, 25, 22, 21, 15, 10, 19, 18, 17, 6, 3, 2, 5, 4, 4, 25, 21, 17, 20, 20, 17, 25, 23, 23, 15, 12, 3, 24, 16, 11, 17, 14, 12, 18, 11, 9, 20, 11, 11, 28, 24, 21
 |30, 20, 16, 20, 17, 13, 16, 6, 4, 25, 20, 16, 25, 14, 1, 20, 12, 3, 20, 15, 6, 27, 22, 17, 9, 9, 9, 22, 21, 13, 18, 16, 12, 16, 16, 16, 11, 8, 7, 24, 21, 19, 9, 7, 6, 19, 14, 6, 16, 15, 15, 27, 26, 25, 18, 16, 13, 24, 19, 16, 21, 21, 16, 21, 21, 19, 17, 14, 14, 22, 19, 12, 16, 12, 7, 21, 18, 17, 14, 11, 8, 19, 17, 15, 18, 18, 16, 9, 9, 6, 21, 19, 17, 10, 7, 3, 13, 8, 8, 5, 3, 2, 23, 22, 21, 8, 8, 8, 16, 10, 5, 12, 11, 9, 20, 14, 10, 16, 14, 14, 27, 21, 12, 22, 16, 16, 10, 6, 4, 27, 25, 23, 25, 15, 5, 22, 20, 18, 10, 6, 4, 24, 18, 17, 22, 17, 11, 28, 26, 24
 |13, 12, 11, 20, 14, 14, 12, 8, 2, 25, 19, 11, 2, 1, 1, 4, 4, 4, 18, 7, 2, 29, 29, 29, 7, 6, 5, 17, 13, 10, 25, 22, 22, 28, 23, 14, 2, 2, 2, 15, 15, 10, 13, 11, 11, 23, 19, 19, 26, 24, 23, 16, 13, 10, 6, 4, 2, 25, 23, 19, 23, 16, 12, 26, 20, 11, 24, 19, 15, 13, 12, 8, 17, 9, 6, 3, 1, 1, 28, 16, 13, 7, 7, 6, 25, 18, 12, 12, 7, 7, 15, 15, 15, 27, 22, 16, 29, 26, 21, 19, 9, 7, 21, 16, 3, 5, 4, 3, 7, 5, 5, 12, 8, 3, 18, 15, 11, 11, 6, 3, 29, 24, 22, 28, 26, 26, 21, 17, 9, 17, 13, 10, 26, 24, 24, 7, 4, 4, 9, 4, 3, 18, 17, 17, 16, 13, 12, 17, 12, 5
 |10, 10, 9, 19, 12, 10, 27, 25, 22, 27, 26, 25, 13, 13, 12, 7, 6, 3, 27, 22, 18, 27, 24, 21, 30, 18, 11, 18, 9, 5, 26, 25, 20, 11, 7, 3, 18, 11, 6, 6, 4, 3, 18, 17, 15, 19, 13, 12, 25, 24, 22, 22, 18, 13, 25, 22, 22, 22, 17, 6, 12, 10, 7, 20, 14, 7, 30, 29, 29, 26, 20, 19, 24, 13, 3, 28, 25, 24, 14, 12, 11, 13, 8, 2, 21, 20, 19, 15, 13, 11, 20, 17, 13, 20, 19, 11, 25, 22, 22, 19, 11, 4, 11, 9, 8, 25, 14, 11, 15, 7, 2, 23, 21, 20, 25, 25, 23, 20, 18, 10, 5, 4, 4, 10, 7, 6, 12, 9, 4, 15, 11, 3, 23, 12, 9, 15, 15, 14, 25, 15, 9, 25, 24, 24, 29, 28, 28, 22, 19, 14
 |27, 23, 19, 27, 24, 21, 18, 12, 7, 22, 22, 20, 5, 5, 4, 25, 9, 6, 20, 19, 16, 19, 19, 6, 16, 15, 13, 23, 22, 22, 21, 14, 14, 12, 6, 4, 9, 7, 6, 25, 22, 18, 23, 19, 14, 7, 5, 4, 23, 20, 18, 15, 13, 10, 11, 8, 6, 19, 16, 15, 30, 24, 22, 20, 20, 20, 8, 7, 5, 19, 14, 13, 20, 19, 18, 10, 7, 2, 13, 9, 3, 27, 26, 20, 17, 12, 6, 5, 5, 4, 28, 26, 24, 6, 3, 1, 19, 15, 12, 9, 7, 3, 16, 11, 7, 10, 10, 8, 27, 23, 20, 16, 9, 8, 21, 21, 14, 16, 14, 14, 25, 17, 9, 29, 25, 23, 3, 3, 2, 16, 14, 11, 3, 2, 2, 15, 10, 8, 15, 9, 3, 20, 17, 14, 19, 19, 19, 19, 18, 18
 |16, 11, 7, 26, 21, 12, 22, 12, 4, 9, 9, 8, 5, 4, 4, 15, 11, 7, 17, 14, 6, 26, 20, 5, 15, 15, 15, 18, 13, 6, 22, 21, 16, 22, 19, 9, 8, 6, 4, 16, 12, 10, 28, 24, 19, 15, 14, 13, 26, 23, 23, 30, 24, 23, 20, 19, 18, 26, 24, 23, 28, 21, 20, 21, 19, 19, 14, 10, 7, 29, 13, 8, 10, 8, 6, 28, 27, 25, 17, 15, 9, 17, 16, 13, 20, 19, 18, 3, 3, 3, 15, 13, 12, 14, 12, 12, 24, 21, 18, 11, 10, 10, 24, 23, 23, 16, 11, 4, 21, 10, 4, 17, 16, 13, 21, 13, 11, 19, 17, 16, 29, 17, 8, 22, 19, 17, 16, 12, 9, 13, 9, 9, 18, 15, 10, 19, 15, 11, 20, 17, 14, 22, 13, 11, 9, 8, 4, 14, 8, 7
 |15, 11, 9, 20, 19, 18, 26, 13, 8, 20, 20, 19, 19, 18, 12, 21, 13, 9, 11, 8, 4, 17, 16, 16, 25, 25, 23, 28, 27, 25, 5, 4, 4, 14, 14, 10, 24, 15, 9, 18, 16, 15, 12, 11, 7, 18, 11, 6, 20, 12, 9, 17, 12, 11, 12, 11, 8, 19, 8, 4, 28, 21, 20, 15, 13, 11, 25, 22, 21, 25, 21, 18, 22, 18, 14, 24, 17, 1, 20, 14, 9, 14, 13, 12, 19, 13, 11, 10, 8, 7, 15, 5, 4, 21, 15, 9, 6, 4, 2, 19, 18, 18, 11, 10, 4, 25, 17, 12, 27, 16, 15, 12, 9, 8, 25, 14, 7, 27, 26, 25, 21, 11, 4, 25, 21, 21, 6, 6, 6, 21, 17, 9, 25, 12, 7, 12, 10, 7, 23, 19, 15, 24, 19, 13, 24, 22, 16, 12, 9, 5|];